\* UABC_Social_Event_Problem *\
Maximize
OBJ: People_Alice_Yu + People_Andy_Huang + People_Anthony_Pang
 + People_Artur_Rakhimov_ + People_Bill_Seang + People_Conan_Zhang
 + People_Daniel__Nhim + People_Danielyn_Castro + People_David_Wei
 + People_Edward_Xu + People_Elvis_Huang + People_Emily_Ha + People_Eric__Shen
 + People_Farhad_Haidari_ + People_Fiona_Wang + People_Franco_Micaller
 + People_Ganesh_Mahesh + People_Gason_Ma + People_Ivan_Lin + People_Ivan_Xu
 + People_Jason_Liu + People_Jason_Tian + People_Jeffrey_Zhou
 + People_Jeremy_Lee + People_Jet_Chiang + People_Jhon_Borja
 + People_Jonathan_Wu + People_Josephine__Ma + People_Justin_Carigo
 + People_Kai_Jie_Taing + People_Khiem_Pham + People_Mark_Lin
 + People_Matthew_Tiv + People_Melvin_Jia + People_Mikail_Mitha
 + People_Minh_Tran + People_Nora_Sone + People_Nora__Sone
 + People_Norakmony_Chhun + People_Oscar_Huang + People_Ray_Wang
 + People_Richman_Tan + People_Robin_Wang + People_Ryan_Peng
 + People_Shantelle_Lee + People_Sky_Kim + People_Stanley_Lin
 + People_Tony_Cao + People_Tony_Cui + People_Vian_Chang + People_William_Lin
 + People_Xiao_Lin + People_Yuyang_Sun + People_anita_cho
 + People_clayton__lin + People_jiaxin_liu + People_kevin_lee
 + People_wuttipat_jirawanitcharoen
Subject To
_C1: People_Alice_Yu + People_Andy_Huang + People_Anthony_Pang
 + People_Artur_Rakhimov_ + People_Bill_Seang + People_Conan_Zhang
 + People_Daniel__Nhim + People_Danielyn_Castro + People_David_Wei
 + People_Edward_Xu + People_Elvis_Huang + People_Emily_Ha + People_Eric__Shen
 + People_Farhad_Haidari_ + People_Fiona_Wang + People_Franco_Micaller
 + People_Ganesh_Mahesh + People_Gason_Ma + People_Ivan_Lin + People_Ivan_Xu
 + People_Jason_Liu + People_Jason_Tian + People_Jeffrey_Zhou
 + People_Jeremy_Lee + People_Jet_Chiang + People_Jhon_Borja
 + People_Jonathan_Wu + People_Josephine__Ma + People_Justin_Carigo
 + People_Kai_Jie_Taing + People_Khiem_Pham + People_Mark_Lin
 + People_Matthew_Tiv + People_Melvin_Jia + People_Mikail_Mitha
 + People_Minh_Tran + People_Nora_Sone + People_Nora__Sone
 + People_Norakmony_Chhun + People_Oscar_Huang + People_Ray_Wang
 + People_Richman_Tan + People_Robin_Wang + People_Ryan_Peng
 + People_Shantelle_Lee + People_Sky_Kim + People_Stanley_Lin
 + People_Tony_Cao + People_Tony_Cui + People_Vian_Chang + People_William_Lin
 + People_Xiao_Lin + People_Yuyang_Sun + People_anita_cho
 + People_clayton__lin + People_jiaxin_liu + People_kevin_lee
 + People_wuttipat_jirawanitcharoen <= 10
_C10: People_Nora_Sone = 0
_C11: People_Nora__Sone = 0
_C12: People_Ryan_Peng = 0
_C13: People_Yuyang_Sun = 0
_C14: People_clayton__lin = 0
_C15: People_Andy_Huang = 0
_C16: People_Bill_Seang = 0
_C17: People_Conan_Zhang = 0
_C18: People_Ivan_Xu = 0
_C19: People_Jonathan_Wu = 0
_C2: People_Alice_Yu + People_Danielyn_Castro + People_Emily_Ha
 + People_Fiona_Wang + People_Josephine__Ma + People_Nora_Sone
 + People_Nora__Sone + People_Shantelle_Lee + People_anita_cho
 + People_kevin_lee >= 2
_C20: People_Melvin_Jia = 0
_C21: People_Robin_Wang = 0
_C22: People_Shantelle_Lee = 0
_C23: People_William_Lin = 0
_C24: People_kevin_lee = 0
_C25: People_Danielyn_Castro = 0
_C26: People_David_Wei = 0
_C27: People_Elvis_Huang = 0
_C28: People_Mikail_Mitha = 0
_C29: People_Minh_Tran = 0
_C3: 2 People_Alice_Yu + People_Andy_Huang + 2 People_Anthony_Pang
 + People_Bill_Seang + People_Conan_Zhang + People_Daniel__Nhim
 + People_Danielyn_Castro + 2 People_David_Wei + People_Edward_Xu
 + 2 People_Elvis_Huang + 2 People_Emily_Ha + People_Eric__Shen
 + 2 People_Fiona_Wang + People_Franco_Micaller + 2 People_Ganesh_Mahesh
 + People_Gason_Ma + People_Ivan_Xu + 2 People_Jason_Tian
 + People_Jeffrey_Zhou + People_Jet_Chiang + 2 People_Jhon_Borja
 + People_Jonathan_Wu + 2 People_Josephine__Ma + People_Justin_Carigo
 + People_Kai_Jie_Taing + People_Khiem_Pham + People_Mark_Lin
 + People_Matthew_Tiv + People_Melvin_Jia + 2 People_Mikail_Mitha
 + 2 People_Minh_Tran + 2 People_Norakmony_Chhun + People_Oscar_Huang
 + 2 People_Ray_Wang + 2 People_Richman_Tan + People_Robin_Wang
 + 2 People_Shantelle_Lee + People_Sky_Kim + People_Stanley_Lin
 + 2 People_Tony_Cao + 2 People_Tony_Cui + People_Vian_Chang
 + People_William_Lin + People_Xiao_Lin + People_anita_cho + People_jiaxin_liu
 + People_kevin_lee + 2 People_wuttipat_jirawanitcharoen <= 18
_C30: People_Ray_Wang = 0
_C31: People_Richman_Tan = 0
_C32: People_Tony_Cao = 0
_C33: People_Tony_Cui = 0
_C34: People_anita_cho = 0
_C35: People_Alice_Yu = 0
_C36: People_Edward_Xu = 0
_C37: People_Fiona_Wang = 0
_C38: People_Gason_Ma = 0
_C39: People_Jeffrey_Zhou = 0
_C4: People_Alice_Yu + People_Anthony_Pang + People_Daniel__Nhim
 + People_Emily_Ha + People_Eric__Shen + People_Fiona_Wang
 + People_Franco_Micaller + People_Ganesh_Mahesh + People_Jason_Tian
 + People_Jhon_Borja + People_Josephine__Ma + People_Justin_Carigo
 + People_Kai_Jie_Taing + People_Matthew_Tiv + People_Norakmony_Chhun
 + People_Vian_Chang + People_jiaxin_liu + People_wuttipat_jirawanitcharoen
 <= 14
_C40: People_Jet_Chiang = 0
_C41: People_Khiem_Pham = 0
_C42: People_Oscar_Huang = 0
_C43: People_Stanley_Lin = 0
_C44: People_Xiao_Lin = 0
_C45: People_Anthony_Pang = 0
_C46: People_Daniel__Nhim = 0
_C47: People_Emily_Ha = 0
_C48: People_Ganesh_Mahesh = 0
_C49: People_Jason_Tian = 0
_C5: People_Artur_Rakhimov_ = 0
_C50: People_Jhon_Borja = 0
_C51: People_Josephine__Ma = 0
_C52: People_Justin_Carigo = 0
_C53: People_Norakmony_Chhun = 0
_C54: People_wuttipat_jirawanitcharoen = 0
_C6: People_Farhad_Haidari_ = 0
_C7: People_Ivan_Lin = 0
_C8: People_Jason_Liu = 0
_C9: People_Jeremy_Lee = 0
Binaries
People_Alice_Yu
People_Andy_Huang
People_Anthony_Pang
People_Artur_Rakhimov_
People_Bill_Seang
People_Conan_Zhang
People_Daniel__Nhim
People_Danielyn_Castro
People_David_Wei
People_Edward_Xu
People_Elvis_Huang
People_Emily_Ha
People_Eric__Shen
People_Farhad_Haidari_
People_Fiona_Wang
People_Franco_Micaller
People_Ganesh_Mahesh
People_Gason_Ma
People_Ivan_Lin
People_Ivan_Xu
People_Jason_Liu
People_Jason_Tian
People_Jeffrey_Zhou
People_Jeremy_Lee
People_Jet_Chiang
People_Jhon_Borja
People_Jonathan_Wu
People_Josephine__Ma
People_Justin_Carigo
People_Kai_Jie_Taing
People_Khiem_Pham
People_Mark_Lin
People_Matthew_Tiv
People_Melvin_Jia
People_Mikail_Mitha
People_Minh_Tran
People_Nora_Sone
People_Nora__Sone
People_Norakmony_Chhun
People_Oscar_Huang
People_Ray_Wang
People_Richman_Tan
People_Robin_Wang
People_Ryan_Peng
People_Shantelle_Lee
People_Sky_Kim
People_Stanley_Lin
People_Tony_Cao
People_Tony_Cui
People_Vian_Chang
People_William_Lin
People_Xiao_Lin
People_Yuyang_Sun
People_anita_cho
People_clayton__lin
People_jiaxin_liu
People_kevin_lee
People_wuttipat_jirawanitcharoen
End
